sing20130214.12
TTAA  64121 48698
99006 24660 10001 00062 25259 00000 92746 21819 02512
85477 18217 34513 70122 09010 00513 50584 04913 08024
40757 14325 08018 30969 29128 08019 25096 39133 11517
20245 52533 12025 15423 69531 09520 10658 79919 24513
88999
77999=
=
TTDD  6412/ 48698
11961 80914 22870 85145
21212 11982 25512 22966 26013 33934 27509 44918 28011
55888 30508 66870 31507=
